
************************************************************
 TOWR - Trajectory Optimization for Walking Robots (v1.4)
                © Alexander W. Winkler
           https://github.com/ethz-adrl/towr
************************************************************

0.7533333333333333
5.389116111614493e-109
0.24
0
0
0.24
0
0
0
0.21
0.19
0.0
0.21
-0.19
0.0
-0.21
0.19
0.0
-0.21
-0.19
0.0
0.01
ee start pos x -> 0.21
ee start pos y -> 0.19
ee start pos z -> 0
ee start pos x -> 0.21
ee start pos y -> -0.19
ee start pos z -> 0
ee start pos x -> -0.21
ee start pos y -> 0.19
ee start pos z -> 0
ee start pos x -> -0.21
ee start pos y -> -0.19
ee start pos z -> 0
start pos x -> 0
start pos y -> 0
start pos z -> 0.24
goal pos x -> 0.753333
goal pos y -> 5.38912e-109
goal pos z -> 0.24
ee start pos x -> 0.21
ee start pos y -> 0.19
ee start pos z -> 0
ee start pos x -> 0.21
ee start pos y -> -0.19
ee start pos z -> 0
ee start pos x -> -0.21
ee start pos y -> 0.19
ee start pos z -> 0
ee start pos x -> -0.21
ee start pos y -> -0.19
ee start pos z -> 0
SOLVER RUN TIME : 15

******************************************************************************
This program contains Ipopt, a library for large-scale nonlinear optimization.
 Ipopt is released as open source code under the Eclipse Public License (EPL).
         For more information visit http://projects.coin-or.org/Ipopt
******************************************************************************

This is Ipopt version 3.11.9, running with linear solver mumps.
NOTE: Other linear solvers might be more efficient (see Ipopt documentation).

Number of nonzeros in equality constraint Jacobian...:    11557
Number of nonzeros in inequality constraint Jacobian.:    20605
Number of nonzeros in Lagrangian Hessian.............:        0

Total number of variables............................:     1005
                     variables with only lower bounds:        0
                variables with lower and upper bounds:        0
                     variables with only upper bounds:        0
Total number of equality constraints.................:      706
Total number of inequality constraints...............:     1024
        inequality constraints with only lower bounds:      112
   inequality constraints with lower and upper bounds:      816
        inequality constraints with only upper bounds:       96

iter    objective    inf_pr   inf_du lg(mu)  ||d||  lg(rg) alpha_du alpha_pr  ls
   0  0.0000000e+00 1.94e+01 1.00e+00   0.0 0.00e+00    -  0.00e+00 0.00e+00   0
   1  0.0000000e+00 1.84e+01 1.01e+00  -0.7 8.53e+00    -  3.92e-02 5.27e-02f  1
   2  0.0000000e+00 1.60e+01 1.41e+01  -0.7 8.07e+00    -  3.02e-01 1.32e-01f  1
   3  0.0000000e+00 1.30e+01 4.85e+01   0.1 1.03e+01    -  4.43e-01 1.85e-01f  1
   4  0.0000000e+00 8.46e+00 1.11e+02   0.2 9.53e+00    -  9.93e-01 3.49e-01h  1
   5  0.0000000e+00 2.75e+00 2.40e+02   0.1 6.52e+00    -  9.89e-01 6.75e-01h  1
   6  0.0000000e+00 1.64e-02 5.36e+01  -0.5 1.92e+00    -  1.00e+00 1.00e+00h  1
   7  0.0000000e+00 6.15e-05 8.03e-02  -1.4 6.95e-02    -  1.00e+00 1.00e+00h  1
   8  0.0000000e+00 8.92e-08 7.81e-02  -7.4 1.04e-04    -  9.89e-01 1.00e+00h  1
   9  0.0000000e+00 9.83e-09 1.19e-04  -5.1 1.19e-04    -  1.00e+00 1.00e+00h  1

Number of Iterations....: 9

                                   (scaled)                 (unscaled)
Objective...............:   0.0000000000000000e+00    0.0000000000000000e+00
Dual infeasibility......:   1.1878590677412380e-04    1.1878590677412380e-04
Constraint violation....:   9.8338253096130757e-09    9.8338253096130757e-09
Complementarity.........:   8.8936131321850391e-06    8.8936131321850391e-06
Overall NLP error.......:   1.1878590677412380e-04    1.1878590677412380e-04


Number of objective function evaluations             = 10
Number of objective gradient evaluations             = 10
Number of equality constraint evaluations            = 10
Number of inequality constraint evaluations          = 10
Number of equality constraint Jacobian evaluations   = 10
Number of inequality constraint Jacobian evaluations = 10
Number of Lagrangian Hessian evaluations             = 0
Total CPU secs in IPOPT (w/o function evaluations)   =      0.332
Total CPU secs in NLP function evaluations           =      0.557

EXIT: Optimal Solution Found.
status -> 0

************************************************************
    IFOPT - Interface to Nonlinear Optimizers (v2.0)
                © Alexander W. Winkler
           https://github.com/ethz-adrl/ifopt
************************************************************
Legend:
c - number of variables, constraints or cost terms
i - indices of this set in overall problem
v - number of [violated variable- or constraint-bounds] or [cost term value]

                                   c             i             v 
variable-sets:
   base-lin                       306        0....305[0m           0[0m
   base-ang                       306      306....611[0m           0[0m
   ee-motion_0                     35      612....646[0m           0[0m
   ee-motion_1                     35      647....681[0m           0[0m
   ee-motion_2                     35      682....716[0m           0[0m
   ee-motion_3                     35      717....751[0m           0[0m
   ee-force_0                      72      752....823[0m           0[0m
   ee-force_1                      72      824....895[0m           0[0m
   ee-force_2                      72      896....967[0m           0[0m
   ee-force_3                      72      968...1039[0m           0[0m

constraint-sets:
   terrain-ee-motion_0             13        0.....12[0m           0[0m
   terrain-ee-motion_1             13       13.....25[0m           0[0m
   terrain-ee-motion_2             13       26.....38[0m           0[0m
   terrain-ee-motion_3             13       39.....51[0m           0[0m
   dynamic                        312       52....363[0m           0[0m
   splineacc-base-lin             147      364....510[0m           0[0m
   splineacc-base-ang             147      511....657[0m           0[0m
   rangeofmotion-0                192      658....849[0m           0[0m
   rangeofmotion-1                192      850...1041[0m           0[0m
   rangeofmotion-2                192     1042...1233[0m           0[0m
   rangeofmotion-3                192     1234...1425[0m           0[0m
   force-ee-force_0                60     1426...1485[0m           0[0m
   force-ee-force_1                60     1486...1545[0m           0[0m
   force-ee-force_2                60     1546...1605[0m           0[0m
   force-ee-force_3                60     1606...1665[0m           0[0m
   swing-ee-motion_0               16     1666...1681[0m           0[0m
   swing-ee-motion_1               16     1682...1697[0m           0[0m
   swing-ee-motion_2               16     1698...1713[0m           0[0m
   swing-ee-motion_3               16     1714...1729[0m           0[0m

cost-terms:


************************************************************
 TOWR - Trajectory Optimization for Walking Robots (v1.4)
                © Alexander W. Winkler
           https://github.com/ethz-adrl/towr
************************************************************

1.3183333333333331
0.0
0.24
0.490275
-0.00532566
0.21279
-0.0525214
-0.04413
-0.0463992
0.729058
0.149187
0
0.780936
-0.202459
0
0.245541
0.219726
0
0.273606
-0.17183
0
3.756
s_vel
0.149629
0.01
-t
3.756
ee start pos x -> 0.729058
ee start pos y -> 0.149187
ee start pos z -> 0
ee start pos x -> 0.780936
ee start pos y -> -0.202459
ee start pos z -> 0
ee start pos x -> 0.245541
ee start pos y -> 0.219726
ee start pos z -> 0
ee start pos x -> 0.273606
ee start pos y -> -0.17183
ee start pos z -> 0
start pos x -> 0.490275
start pos y -> -0.00532566
start pos z -> 0.21279
goal pos x -> 1.31833
goal pos y -> 0
goal pos z -> 0.24
ee start pos x -> 0.729058
ee start pos y -> 0.149187
ee start pos z -> 0
ee start pos x -> 0.780936
ee start pos y -> -0.202459
ee start pos z -> 0
ee start pos x -> 0.245541
ee start pos y -> 0.219726
ee start pos z -> 0
ee start pos x -> 0.273606
ee start pos y -> -0.17183
ee start pos z -> 0
SOLVER RUN TIME : 15

******************************************************************************
This program contains Ipopt, a library for large-scale nonlinear optimization.
 Ipopt is released as open source code under the Eclipse Public License (EPL).
         For more information visit http://projects.coin-or.org/Ipopt
******************************************************************************

This is Ipopt version 3.11.9, running with linear solver mumps.
NOTE: Other linear solvers might be more efficient (see Ipopt documentation).

Number of nonzeros in equality constraint Jacobian...:    11557
Number of nonzeros in inequality constraint Jacobian.:    20605
Number of nonzeros in Lagrangian Hessian.............:        0

Total number of variables............................:     1005
                     variables with only lower bounds:        0
                variables with lower and upper bounds:        0
                     variables with only upper bounds:        0
Total number of equality constraints.................:      706
Total number of inequality constraints...............:     1024
        inequality constraints with only lower bounds:      112
   inequality constraints with lower and upper bounds:      816
        inequality constraints with only upper bounds:       96

iter    objective    inf_pr   inf_du lg(mu)  ||d||  lg(rg) alpha_du alpha_pr  ls
   0  0.0000000e+00 1.99e+01 1.00e+00   0.0 0.00e+00    -  0.00e+00 0.00e+00   0
   1  0.0000000e+00 1.97e+01 4.02e+01   0.1 1.24e+01    -  8.61e-02 9.26e-03f  1
   2  0.0000000e+00 1.56e+01 3.14e+01  -0.5 8.83e+00    -  1.95e-01 2.05e-01f  1
   3  0.0000000e+00 1.35e+01 4.53e+01  -0.6 7.24e+00    -  4.37e-01 1.39e-01h  1
   4  0.0000000e+00 9.74e+00 2.16e+02   0.1 9.83e+00    -  9.92e-01 2.77e-01f  1
   5  0.0000000e+00 5.08e+00 1.86e+02   0.1 7.32e+00    -  9.71e-01 4.78e-01h  1
   6  0.0000000e+00 6.20e-02 1.45e+02  -0.3 3.54e+00    -  9.98e-01 1.00e+00h  1
   7  0.0000000e+00 1.42e-03 1.94e+00  -0.7 3.38e-01    -  9.94e-01 1.00e+00f  1
   8  0.0000000e+00 7.69e-07 5.13e-01  -6.7 5.80e-03    -  9.88e-01 1.00e+00h  1
   9  0.0000000e+00 7.42e-12 5.18e-03  -8.6 1.62e-05    -  9.90e-01 1.00e+00h  1
iter    objective    inf_pr   inf_du lg(mu)  ||d||  lg(rg) alpha_du alpha_pr  ls
  10  0.0000000e+00 2.94e-13 2.68e-05 -10.6 5.32e-05    -  9.95e-01 1.00e+00h  1

Number of Iterations....: 10

                                   (scaled)                 (unscaled)
Objective...............:   0.0000000000000000e+00    0.0000000000000000e+00
Dual infeasibility......:   2.6805803725173720e-05    2.6805803725173720e-05
Constraint violation....:   2.9365399001335390e-13    2.9365399001335390e-13
Complementarity.........:   1.5424718751479635e-07    1.5424718751479635e-07
Overall NLP error.......:   2.6805803725173720e-05    2.6805803725173720e-05


Number of objective function evaluations             = 11
Number of objective gradient evaluations             = 11
Number of equality constraint evaluations            = 11
Number of inequality constraint evaluations          = 11
Number of equality constraint Jacobian evaluations   = 11
Number of inequality constraint Jacobian evaluations = 11
Number of Lagrangian Hessian evaluations             = 0
Total CPU secs in IPOPT (w/o function evaluations)   =      0.378
Total CPU secs in NLP function evaluations           =      0.651

EXIT: Optimal Solution Found.
status -> 0

************************************************************
    IFOPT - Interface to Nonlinear Optimizers (v2.0)
                © Alexander W. Winkler
           https://github.com/ethz-adrl/ifopt
************************************************************
Legend:
c - number of variables, constraints or cost terms
i - indices of this set in overall problem
v - number of [violated variable- or constraint-bounds] or [cost term value]

                                   c             i             v 
variable-sets:
   base-lin                       306        0....305[0m           0[0m
   base-ang                       306      306....611[0m           0[0m
   ee-motion_0                     35      612....646[0m           0[0m
   ee-motion_1                     35      647....681[0m           0[0m
   ee-motion_2                     35      682....716[0m           0[0m
   ee-motion_3                     35      717....751[0m           0[0m
   ee-force_0                      72      752....823[0m           0[0m
   ee-force_1                      72      824....895[0m           0[0m
   ee-force_2                      72      896....967[0m           0[0m
   ee-force_3                      72      968...1039[0m           0[0m

constraint-sets:
   terrain-ee-motion_0             13        0.....12[0m           0[0m
   terrain-ee-motion_1             13       13.....25[0m           0[0m
   terrain-ee-motion_2             13       26.....38[0m           0[0m
   terrain-ee-motion_3             13       39.....51[0m           0[0m
   dynamic                        312       52....363[0m           0[0m
   splineacc-base-lin             147      364....510[0m           0[0m
   splineacc-base-ang             147      511....657[0m           0[0m
   rangeofmotion-0                192      658....849[0m           0[0m
   rangeofmotion-1                192      850...1041[0m           0[0m
   rangeofmotion-2                192     1042...1233[0m           0[0m
   rangeofmotion-3                192     1234...1425[0m           0[0m
   force-ee-force_0                60     1426...1485[0m           0[0m
   force-ee-force_1                60     1486...1545[0m           0[0m
   force-ee-force_2                60     1546...1605[0m           0[0m
   force-ee-force_3                60     1606...1665[0m           0[0m
   swing-ee-motion_0               16     1666...1681[0m           0[0m
   swing-ee-motion_1               16     1682...1697[0m           0[0m
   swing-ee-motion_2               16     1698...1713[0m           0[0m
   swing-ee-motion_3               16     1714...1729[0m           0[0m

cost-terms:

